1 4 0 5 573 572 6 7 8 9 10 11 14 15 16 17 18 19 20 568 569 570 571 466 467 468 469 470 495 471 472 473 474 567 566 565 563 562 564 549 548 545 546 547 544 543 541 542 107 110 111 109 108 173 174 175 172 170 171 169 176 177 178 179 180 181 182 183 185 184 198 199 200 201 166 167 163 168 162 161 113 112 114 115 116 106 105 104 103 102 99 100 101 551 552 553 554 98 97 96 95 94 93 92 91 555 556 41 40 557 558 559 550 560 561 29 28 27 26 25 24 21 13 12 23 22 31 30 32 33 34 35 36 37 38 39 42 43 44 45 46 47 48 49 54 53 55 56 83 52 50 51 84 85 86 87 90 89 88 78 79 80 81 82 57 58 59 60 61 63 62 64 76 77 75 74 73 119 118 120 121 117 122 123 71 72 65 66 67 68 70 69 124 125 126 127 128 138 137 129 130 131 132 133 134 135 136 139 140 141 151 150 149 152 148 147 142 143 144 146 145 158 157 159 160 155 156 153 154 164 165 203 204 202 208 207 206 205 197 196 195 194 193 192 191 190 226 225 219 218 220 221 222 224 223 209 210 211 212 213 214 215 217 216 246 247 245 238 239 240 237 236 235 234 232 233 231 230 229 228 189 227 186 188 187 540 538 537 539 478 477 479 480 476 475 482 481 483 485 484 536 535 487 486 534 488 533 532 489 531 530 529 528 527 512 511 510 509 513 514 515 516 517 520 521 522 523 526 490 491 492 493 525 524 494 518 519 497 496 465 464 463 462 461 460 459 458 457 456 455 454 439 443 444 445 442 446 447 448 449 450 441 440 453 452 499 500 501 498 502 503 504 505 308 309 310 311 451 312 313 316 314 315 374 373 372 371 396 395 375 376 377 378 379 380 381 390 389 388 391 392 393 394 397 398 370 369 368 365 367 366 329 328 327 326 325 324 323 322 321 320 319 317 318 305 306 304 303 307 506 507 508 302 301 241 242 243 244 248 249 250 251 252 254 253 255 256 257 300 258 259 260 261 262 263 264 266 265 299 298 297 267 271 272 269 268 270 293 294 296 295 291 292 273 274 275 290 289 288 276 277 278 279 282 281 280 287 286 285 284 283 334 335 336 337 338 339 333 332 331 330 340 341 342 343 344 345 346 364 363 361 362 347 348 349 350 351 352 413 414 415 416 417 419 418 410 411 412 356 355 353 354 357 358 359 360 401 402 403 404 400 399 406 405 407 408 409 384 383 385 387 386 382 425 424 423 422 421 420 426 427 428 429 431 430 432 433 434 435 436 438 437 3 2